k = 40;
b = 20;
AtomicConstraints =  [|
24, 22|
	24, 23|
	24, 21|
	24, 32|
	24, 34|
	25, 22|
	25, 23|
	25, 21|
	25, 32|
	25, 34|
	35, 23|
	35, 21|
	35, 32|
	35, 34|
	36, 21|
	36, 32|
	36, 34|
	37, 34|
	26, 22|
	26, 23|
	26, 21|
	26, 32|
	26, 34|
	26, 24|
	26, 25|
	26, 35|
	26, 36|
	26, 37|
	27, 23|
	27, 21|
	27, 32|
	27, 34|
	27, 24|
	27, 25|
	27, 35|
	27, 36|
	27, 37|
	38, 21|
	38, 32|
	38, 34|
	38, 25|
	38, 35|
	38, 36|
	38, 37|
	39, 32|
	39, 34|
	39, 35|
	39, 36|
	39, 37|
	40, 34|
	40, 36|
	40, 37|
	28, 22|
	28, 23|
	28, 21|
	28, 32|
	28, 34|
	28, 24|
	28, 25|
	28, 35|
	28, 36|
	28, 37|
	28, 26|
	28, 27|
	28, 38|
	28, 39|
	28, 40|
	29, 23|
	29, 21|
	29, 32|
	29, 34|
	29, 25|
	29, 35|
	29, 36|
	29, 37|
	29, 26|
	29, 27|
	29, 38|
	29, 39|
	29, 40|
	30, 32|
	30, 34|
	30, 35|
	30, 36|
	30, 37|
	30, 27|
	30, 38|
	30, 39|
	30, 40|
	31, 34|
	31, 36|
	31, 37|
	31, 38|
	31, 39|
	31, 40|
	33, 37|
	33, 39|
	33, 40|];
DisjunctiveConstraints =  [|2, 20, 2, 3|
	3, 2, 3, 4|
	4, 3, 4, 5|
	5, 4, 5, 6|
	6, 5, 6, 7|
	7, 6, 7, 8|
	8, 7, 8, 9|
	9, 8, 9, 10|
	10, 9, 10, 11|
	11, 10, 11, 13|
	12, 1, 12, 14|
	14, 12, 14, 15|
	15, 14, 15, 16|
	16, 15, 16, 17|
	17, 16, 17, 18|
	18, 17, 18, 19|
	19, 18, 19, 20|
	20, 19, 20, 2|
	23, 22, 23, 21|
	21, 23, 21, 32|
	32, 21, 32, 34|
	24, 2, 24, 22|
	24, 3, 24, 23|
	25, 3, 25, 23|
	25, 22, 2, 25|
	25, 21, 25, 1|
	25, 24, 25, 35|
	35, 23, 3, 35|
	35, 21, 35, 1|
	35, 32, 35, 12|
	35, 25, 35, 36|
	36, 23, 3, 36|
	36, 21, 1, 36|
	36, 32, 36, 12|
	36, 34, 36, 14|
	36, 35, 36, 37|
	37, 32, 12, 37|
	37, 34, 37, 14|
	26, 3, 26, 23|
	26, 4, 26, 24|
	26, 5, 26, 25|
	27, 5, 27, 25|
	27, 15, 27, 35|
	27, 21, 27, 1|
	27, 24, 4, 27|
	27, 26, 27, 38|
	38, 15, 38, 35|
	38, 16, 38, 36|
	38, 22, 2, 38|
	38, 32, 38, 12|
	38, 24, 4, 38|
	38, 25, 5, 38|
	38, 27, 38, 39|
	39, 16, 39, 36|
	39, 17, 39, 37|
	39, 22, 2, 39|
	39, 23, 3, 39|
	39, 34, 39, 14|
	39, 25, 5, 39|
	39, 35, 15, 39|
	39, 38, 39, 40|
	40, 17, 40, 37|
	40, 23, 3, 40|
	40, 21, 1, 40|
	40, 36, 16, 40|
	28, 3, 28, 23|
	28, 5, 28, 25|
	28, 6, 28, 26|
	28, 7, 28, 27|
	28, 21, 28, 1|
	29, 7, 29, 27|
	29, 15, 29, 35|
	29, 18, 29, 38|
	29, 32, 29, 12|
	29, 26, 6, 29|
	29, 28, 29, 30|
	30, 16, 30, 36|
	30, 18, 30, 38|
	30, 19, 30, 39|
	30, 34, 30, 14|
	30, 26, 6, 30|
	30, 27, 7, 30|
	30, 29, 30, 31|
	31, 17, 31, 37|
	31, 19, 31, 39|
	31, 20, 31, 40|
	31, 24, 4, 31|
	31, 27, 7, 31|
	31, 38, 18, 31|
	31, 30, 31, 33|
	33, 20, 33, 40|
	33, 22, 2, 33|
	33, 25, 5, 33|
	33, 35, 15, 33|
	33, 38, 18, 33|
	33, 39, 19, 33|];
SoftAtomicConstraints =  [|
20, 2|
2, 3|
3, 4|
4, 5|
5, 6|
6, 7|
7, 8|
8, 9|
9, 10|
10, 11|
1, 12|
11, 13|
12, 14|
14, 15|
15, 16|
16, 17|
17, 18|
18, 19|
19, 20|
23, 21|
22, 23|
24, 25|
26, 27|
28, 29|
29, 30|
30, 31|
21, 32|
31, 33|
32, 34|
25, 35|
35, 36|
36, 37|
27, 38|
38, 39|
39, 40|];
DirectSuccessors =  [];
